NAME : couriers
TYPE : PDPTW
DIMENSION : 11
VEHICLES : 1
CAPACITY : 10000
EDGE_WEIGHT_TYPE : MAN_2D
NODE_COORD_SECTION
1 111 5
2 236 150
3 201 77
4 118 104
5 191 126
6 30 163
7 18 149
8 159 60
9 370 95
10 226 120
11 197 128
PICKUP_AND_DELIVERY_SECTION
1 0 366 1439 0 0 0
2 1 330 840 10 0 3
3 -1 674 840 10 2 0
4 1 300 900 10 0 5
5 -1 900 1080 10 4 0
6 1 300 1140 10 0 7
7 -1 1020 1200 10 6 0
8 1 420 1080 10 0 9
9 -1 1080 1110 10 8 0
10 1 360 870 10 0 11
11 -1 676 900 10 10 0
DEPOT_SECTION
1
-1
EOF